'hugeuniform101'
      58
     150
     147         2
     143         1
     139         1
     136         1
     133         1
     132         2
     129         1
     120         2
     119         1
     117         1
     114         1
     113         2
     112         2
     111         2
     109         1
     108         1
     107         1
     105         1
     104         1
      98         1
      93         1
      92         1
      90         2
      87         1
      85         1
      83         2
      78         1
      71         1
      70         1
      65         2
      63         1
      62         1
      61         1
      57         1
      55         1
      53         2
      51         2
      50         1
      46         1
      45         1
      43         1
      34         2
      33         2
      31         1
      29         1
      26         1
      24         1
      23         1
      17         1
      16         1
      14         3
      13         1
      12         1
       9         1
       7         1
       5         1
       3         2
       1         2
'hugeuniform102'
      58
     150
     150         1
     149         1
     148         1
     147         1
     146         2
     145         2
     143         1
     142         1
     140         1
     139         1
     138         1
     137         1
     136         1
     135         3
     130         2
     129         1
     124         1
     122         1
     120         1
     116         1
     115         1
     107         2
     102         1
     101         1
      99         1
      98         1
      97         1
      94         1
      93         1
      91         1
      89         2
      87         1
      86         1
      85         1
      84         1
      81         1
      77         2
      76         1
      75         1
      73         1
      72         1
      69         2
      66         1
      63         1
      50         2
      49         1
      42         1
      37         1
      35         1
      30         2
      24         1
      20         1
      13         1
      12         2
      11         4
       7         1
       6         1
       4         3
'hugeuniform103'
      64
     150
     149         1
     148         1
     147         1
     144         1
     142         1
     141         1
     140         1
     138         1
     136         2
     134         1
     132         1
     128         2
     127         1
     122         1
     120         1
     119         2
     118         1
     114         1
     113         1
     112         1
     108         1
     106         1
     104         2
     103         1
     102         1
     100         1
      99         1
      98         1
      97         1
      96         3
      94         2
      91         1
      87         1
      84         1
      78         1
      72         2
      70         2
      69         1
      64         1
      61         1
      58         1
      52         2
      48         1
      44         1
      42         1
      38         1
      37         1
      36         1
      34         1
      33         1
      32         1
      31         2
      28         1
      27         1
      21         1
      20         1
      19         1
      17         1
      16         1
      15         1
      11         1
       8         1
       4         1
       2         1
'hugeuniform104'
      60
     150
     144         1
     142         1
     141         1
     140         1
     139         1
     135         2
     133         1
     131         1
     129         1
     128         1
     125         2
     120         1
     117         1
     116         1
     115         1
     114         1
     109         1
     108         1
     106         1
     105         1
     104         2
      94         2
      93         1
      92         1
      91         1
      90         2
      89         1
      86         1
      81         1
      77         1
      75         1
      73         1
      72         1
      69         1
      61         1
      60         1
      56         1
      55         2
      53         1
      47         2
      46         1
      45         1
      40         3
      39         1
      36         3
      35         2
      31         2
      30         1
      29         2
      28         1
      26         1
      24         1
      23         2
      20         1
      16         1
      14         1
      12         1
      11         1
       8         1
       1         1
'hugeuniform105'
      62
     150
     148         1
     146         2
     142         1
     141         1
     134         1
     133         2
     131         2
     129         2
     127         1
     126         1
     125         1
     123         1
     116         1
     113         1
     110         1
     109         1
     107         1
     106         1
     103         1
      99         1
      98         2
      94         1
      92         1
      87         1
      85         1
      83         1
      79         1
      78         2
      72         1
      71         1
      70         1
      67         1
      61         1
      58         1
      55         1
      49         2
      46         1
      44         1
      43         1
      42         1
      41         1
      39         2
      36         1
      34         1
      33         1
      28         1
      26         1
      25         2
      22         1
      19         1
      17         2
      15         1
      14         2
      12         1
      10         1
       9         2
       7         1
       6         1
       4         2
       3         1
       2         1
       1         1
'hugeuniform106'
      60
     150
     150         1
     149         2
     145         2
     143         1
     137         1
     136         2
     135         1
     133         1
     131         1
     129         1
     128         1
     126         1
     124         1
     123         2
     121         1
     120         2
     119         1
     112         1
     109         1
     107         1
     105         1
     101         1
      99         3
      95         1
      93         1
      91         2
      90         1
      89         1
      87         1
      80         1
      79         1
      78         1
      77         2
      75         1
      74         3
      71         1
      69         2
      65         1
      63         1
      60         1
      59         1
      56         1
      52         1
      51         1
      50         1
      47         1
      37         1
      36         1
      35         1
      33         1
      29         1
      27         1
      26         1
      16         1
      15         2
      11         1
       7         1
       5         2
       4         2
       1         1
'hugeuniform107'
      60
     150
     149         1
     147         1
     144         1
     141         1
     137         1
     135         2
     132         2
     129         1
     128         1
     127         1
     123         1
     122         1
     121         1
     120         2
     119         1
     118         1
     115         1
     114         1
     108         1
     106         1
     103         1
     102         1
      96         1
      92         2
      91         1
      89         1
      78         1
      77         3
      76         1
      75         1
      68         3
      67         1
      64         2
      62         1
      60         1
      59         1
      58         1
      55         1
      52         1
      51         1
      49         2
      47         1
      43         1
      41         1
      37         2
      36         1
      35         1
      34         1
      30         1
      29         2
      28         1
      27         2
      23         2
      21         1
      18         2
      14         1
      13         1
      12         1
      11         1
       8         1
'hugeuniform108'
      62
     150
     150         1
     148         1
     145         2
     143         1
     138         1
     137         1
     136         1
     135         1
     131         1
     130         1
     128         2
     127         1
     126         1
     125         2
     121         1
     120         1
     118         3
     117         1
     116         1
     115         1
     112         1
     109         1
     108         2
     104         2
     103         2
      98         1
      94         1
      92         1
      90         1
      87         2
      86         1
      85         1
      83         2
      82         1
      80         1
      79         3
      78         1
      71         1
      69         1
      68         1
      67         1
      59         1
      57         1
      56         1
      53         1
      52         1
      51         1
      49         1
      46         1
      43         2
      42         1
      41         1
      37         1
      36         1
      31         1
      27         1
      22         1
      17         1
      15         1
      13         1
      12         1
      11         1
'hugeuniform109'
      61
     150
     148         1
     145         1
     144         1
     143         1
     140         1
     137         1
     136         1
     129         1
     128         1
     126         1
     122         1
     120         1
     118         1
     113         1
     109         2
     108         1
     107         1
     106         1
     104         2
     102         1
      99         1
      95         1
      90         1
      88         2
      86         1
      84         1
      83         3
      80         1
      78         1
      77         2
      76         1
      74         2
      73         1
      71         1
      68         2
      64         1
      61         1
      58         1
      54         1
      53         2
      51         1
      49         2
      48         1
      47         1
      45         2
      43         2
      42         1
      40         1
      35         1
      33         2
      32         1
      31         1
      30         1
      29         1
      23         2
      20         1
      18         1
      16         1
      15         1
      10         1
       3         1
'hugeuniform110'
      60
     150
     147         1
     146         1
     143         1
     140         1
     139         1
     138         1
     132         1
     131         2
     130         2
     129         1
     126         1
     125         1
     124         1
     121         1
     120         2
     117         2
     115         1
     114         1
     113         1
     110         1
     108         1
     102         1
     101         1
      99         2
      97         1
      96         1
      93         1
      90         1
      87         1
      85         1
      82         1
      81         1
      74         1
      72         1
      68         1
      67         2
      65         1
      64         3
      63         1
      62         1
      61         1
      51         2
      50         1
      49         1
      46         2
      42         1
      41         1
      40         1
      39         3
      37         1
      31         1
      29         3
      28         1
      26         1
      14         1
      11         1
       9         1
       6         1
       5         2
       1         1
'hugeuniform111'
      78
     150
     148         1
     147         2
     146         1
     143         1
     139         2
     138         1
     136         1
     133         1
     132         2
     130         1
     129         1
     120         2
     119         1
     117         1
     114         1
     113         1
     112         3
     111         2
     109         1
     107         2
     105         1
     103         1
     101         1
      98         1
      97         1
      94         1
      92         1
      91         1
      90         2
      89         1
      87         2
      85         1
      84         2
      83         2
      78         1
      77         1
      76         1
      74         1
      71         1
      70         1
      69         1
      65         2
      63         2
      62         1
      61         1
      56         1
      55         1
      52         2
      51         1
      50         1
      49         2
      48         1
      45         2
      42         1
      34         2
      33         2
      32         1
      30         1
      29         1
      28         1
      25         1
      23         2
      22         1
      19         1
      16         1
      15         1
      14         1
      13         2
      12         1
      11         1
       8         1
       6         1
       5         1
       4         1
       3         1
       2         2
       1         1
       0         1
'hugeuniform112'
      67
     150
     150         1
     149         1
     148         1
     147         2
     146         1
     145         2
     144         1
     143         1
     142         2
     140         3
     138         1
     137         1
     136         2
     135         4
     134         1
     130         1
     129         1
     128         2
     127         1
     124         1
     122         1
     120         1
     119         2
     118         1
     116         1
     115         1
     113         2
     111         1
     108         1
     107         2
     104         1
     103         2
     102         2
     100         1
      98         3
      97         1
      96         4
      93         2
      90         1
      89         1
      84         2
      81         1
      76         1
      73         1
      71         2
      70         1
      69         1
      65         1
      58         1
      52         1
      50         1
      43         1
      41         2
      37         2
      33         1
      32         1
      31         2
      30         1
      27         1
      26         1
      15         1
      14         1
      13         1
      11         3
      10         4
       6         1
       3         3
'hugeuniform113'
      74
     150
     149         1
     144         1
     142         1
     141         1
     140         1
     139         1
     135         1
     134         1
     132         2
     131         1
     129         1
     128         1
     125         2
     122         1
     120         1
     119         1
     117         1
     115         1
     114         1
     113         1
     108         2
     106         2
     104         2
     103         1
      94         3
      93         1
      92         1
      91         1
      90         1
      89         2
      88         1
      87         1
      86         1
      81         1
      78         1
      77         1
      74         1
      72         2
      71         1
      70         1
      68         2
      63         1
      60         2
      59         1
      55         2
      54         1
      53         1
      51         1
      47         2
      46         1
      45         2
      39         4
      37         1
      36         2
      35         2
      34         2
      31         1
      30         2
      29         2
      28         1
      27         1
      26         1
      24         1
      22         2
      20         2
      19         2
      16         1
      15         1
      13         1
      11         2
       8         1
       7         1
       1         1
       0         1
'hugeuniform114'
      78
     150
     149         1
     148         1
     146         2
     142         1
     141         1
     136         2
     134         1
     133         3
     131         3
     129         2
     128         1
     127         1
     125         2
     124         1
     123         1
     119         1
     116         1
     113         1
     110         1
     109         1
     107         2
     105         1
     102         1
     101         1
      99         2
      98         2
      94         1
      91         1
      86         2
      85         1
      83         1
      80         1
      79         1
      78         2
      77         3
      74         1
      72         1
      70         2
      67         1
      65         1
      62         1
      61         1
      60         1
      58         1
      56         1
      54         1
      49         1
      48         1
      45         1
      44         1
      42         2
      41         1
      39         1
      38         1
      35         2
      33         1
      32         1
      28         1
      25         1
      24         2
      21         1
      18         1
      16         3
      15         1
      14         1
      13         2
      12         1
      11         1
      10         1
       9         1
       8         1
       6         1
       5         1
       4         1
       3         1
       2         1
       1         1
       0         1
'hugeuniform115'
      71
     150
     150         1
     149         2
     147         1
     145         2
     144         1
     143         1
     140         1
     137         1
     136         1
     135         3
     132         1
     129         1
     128         1
     127         1
     126         1
     123         2
     121         1
     120         4
     119         1
     117         1
     115         1
     111         1
     108         1
     105         1
     103         1
     102         1
      99         2
      95         2
      93         1
      91         3
      90         1
      89         3
      79         1
      77         3
      76         1
      74         2
      73         1
      71         1
      69         2
      67         1
      63         1
      58         2
      54         1
      52         2
      50         2
      49         1
      48         1
      46         2
      43         1
      37         1
      36         2
      35         2
      33         1
      32         1
      29         3
      28         1
      27         1
      25         1
      23         2
      20         1
      18         2
      14         1
      13         1
      12         1
      10         1
       7         1
       6         1
       5         1
       4         1
       3         2
       0         1
'hugeuniform116'
      70
     150
     150         1
     148         1
     145         2
     143         1
     138         1
     136         2
     135         1
     132         1
     131         1
     130         1
     129         1
     128         2
     127         1
     126         1
     125         2
     123         1
     122         1
     121         1
     120         2
     118         3
     117         1
     116         1
     115         1
     113         1
     112         1
     108         4
     106         1
     104         1
     103         2
     102         1
      98         1
      94         1
      92         1
      91         1
      89         1
      87         1
      86         2
      85         1
      83         2
      81         1
      79         4
      78         2
      75         1
      71         1
      69         1
      68         2
      67         3
      64         1
      62         1
      59         1
      58         2
      56         1
      55         1
      53         1
      51         3
      49         1
      46         1
      42         3
      41         2
      37         1
      36         1
      35         1
      30         1
      29         1
      26         3
      22         1
      17         1
      14         1
      13         2
      11         2
'hugeuniform117'
      80
     150
     148         1
     145         1
     144         1
     143         1
     140         1
     138         1
     137         1
     136         1
     131         1
     129         1
     128         1
     126         1
     122         1
     120         2
     118         1
     117         1
     113         1
     110         1
     108         3
     107         1
     105         1
     104         1
     103         1
     102         2
     101         1
      99         1
      96         1
      95         1
      90         2
      88         2
      86         1
      85         1
      84         1
      83         2
      82         1
      80         1
      79         1
      77         2
      76         1
      75         1
      74         1
      73         3
      71         2
      67         2
      65         1
      64         1
      63         1
      61         1
      60         1
      57         1
      54         1
      53         1
      52         1
      51         1
      50         1
      49         2
      48         2
      47         1
      46         2
      45         1
      44         1
      43         1
      42         2
      41         1
      39         2
      34         1
      33         1
      32         1
      31         2
      30         1
      29         1
      28         2
      25         1
      22         2
      19         1
      18         1
      15         1
      14         1
       9         1
       2         1
'hugeuniform118'
      77
     150
     149         1
     148         1
     147         1
     146         1
     143         1
     141         1
     140         1
     139         1
     137         1
     136         1
     132         2
     131         1
     130         2
     129         1
     127         1
     126         1
     125         2
     124         1
     121         1
     120         1
     119         1
     117         2
     115         2
     114         3
     113         1
     111         1
     109         1
     108         1
     107         1
     104         1
     103         1
     100         1
      98         2
      97         1
      95         1
      93         1
      92         2
      91         2
      89         1
      86         2
      85         1
      81         1
      78         1
      74         1
      68         1
      67         2
      63         3
      62         1
      61         2
      50         2
      49         1
      48         1
      46         2
      43         2
      40         1
      39         2
      38         1
      37         1
      35         1
      32         2
      30         1
      29         1
      28         2
      23         1
      20         1
      19         1
      14         1
      13         1
      11         1
      10         1
       8         2
       7         1
       6         1
       5         2
       4         1
       2         1
       0         1
'hugeuniform119'
      76
     150
     150         1
     149         2
     148         1
     147         1
     146         1
     145         1
     144         1
     140         1
     139         1
     137         1
     133         1
     131         4
     130         2
     129         1
     127         1
     125         1
     123         2
     122         1
     121         2
     120         1
     118         1
     117         2
     112         1
     109         2
     107         2
     104         1
     103         1
     101         1
     100         1
      97         1
      96         1
      92         1
      91         1
      90         1
      89         1
      84         1
      83         1
      82         1
      77         1
      71         1
      70         1
      69         2
      67         2
      62         1
      61         3
      59         1
      58         1
      57         1
      56         2
      55         2
      53         1
      52         1
      51         4
      50         1
      48         3
      47         2
      44         1
      43         1
      42         1
      40         1
      36         1
      34         1
      33         1
      32         1
      26         1
      24         1
      15         1
      13         1
       9         1
       8         1
       6         2
       4         2
       3         1
       2         1
       1         1
       0         1
'hugeuniform120'
      74
     150
     150         1
     147         2
     146         1
     145         1
     144         1
     143         1
     142         1
     141         1
     139         1
     138         1
     135         1
     133         3
     130         1
     126         1
     123         1
     116         1
     114         2
     111         2
     109         1
     108         1
     107         2
     105         2
     103         1
     100         1
      99         1
      96         1
      95         1
      93         1
      92         1
      91         1
      88         1
      87         2
      86         1
      85         1
      83         2
      80         1
      79         1
      78         1
      73         2
      72         2
      71         2
      69         1
      66         1
      65         1
      63         1
      62         1
      61         2
      60         1
      57         1
      53         1
      47         1
      42         2
      41         1
      40         1
      39         4
      37         1
      34         2
      33         1
      32         1
      31         1
      30         1
      23         3
      22         1
      21         1
      20         3
      19         2
      18         2
      15         1
      13         2
       9         1
       8         1
       6         2
       2         1
       1         1
